100 1030
1 7
1 14
1 15
1 26
1 31
1 35
1 38
1 40
1 47
1 49
1 57
1 59
1 61
1 63
1 71
1 73
1 74
1 76
1 86
1 88
1 93
1 97
2 11
2 19
2 24
2 34
2 36
2 37
2 38
2 40
2 41
2 42
2 53
2 54
2 57
2 76
2 79
2 85
2 87
2 89
2 94
2 96
3 6
3 7
3 15
3 23
3 29
3 31
3 36
3 44
3 50
3 67
3 70
3 74
3 82
3 83
3 87
3 95
3 97
3 98
4 11
4 22
4 23
4 24
4 27
4 45
4 53
4 54
4 63
4 64
4 68
4 73
4 91
4 94
4 95
5 6
5 9
5 13
5 19
5 24
5 26
5 29
5 42
5 45
5 52
5 53
5 56
5 57
5 58
5 60
5 72
5 76
5 81
5 82
5 84
5 85
5 86
6 9
6 11
6 17
6 19
6 23
6 32
6 33
6 36
6 41
6 44
6 49
6 55
6 73
6 76
6 78
6 79
6 98
7 8
7 15
7 17
7 23
7 26
7 27
7 28
7 31
7 35
7 37
7 39
7 40
7 41
7 46
7 50
7 56
7 60
7 61
7 62
7 74
7 75
7 89
7 90
7 94
7 97
7 99
8 9
8 11
8 13
8 14
8 17
8 18
8 22
8 26
8 29
8 36
8 45
8 56
8 60
8 62
8 63
8 70
8 74
8 77
8 83
8 86
8 89
8 92
8 93
8 94
8 100
9 14
9 15
9 17
9 19
9 26
9 27
9 43
9 49
9 52
9 53
9 58
9 70
9 71
9 74
9 77
9 88
9 93
9 95
9 96
9 98
10 11
10 22
10 26
10 29
10 41
10 44
10 47
10 49
10 58
10 74
10 77
10 92
10 98
10 100
11 16
11 21
11 27
11 30
11 43
11 45
11 53
11 63
11 64
11 80
11 81
11 97
12 13
12 18
12 20
12 40
12 54
12 55
12 58
12 61
12 62
12 67
12 78
12 94
12 98
13 18
13 20
13 21
13 23
13 29
13 31
13 32
13 51
13 63
13 65
13 66
13 68
13 69
13 70
14 19
14 20
14 22
14 23
14 25
14 31
14 36
14 40
14 48
14 54
14 61
14 63
14 65
14 66
14 71
14 81
14 82
14 88
14 93
14 99
15 18
15 22
15 23
15 24
15 25
15 58
15 59
15 66
15 69
15 76
15 82
15 84
15 87
15 89
15 91
15 92
15 97
15 98
15 100
16 21
16 25
16 26
16 34
16 36
16 39
16 42
16 49
16 52
16 60
16 71
16 73
16 75
16 85
16 86
16 87
16 94
16 98
17 18
17 21
17 31
17 39
17 40
17 50
17 51
17 54
17 56
17 60
17 61
17 63
17 77
17 80
17 87
17 90
17 95
18 20
18 25
18 30
18 39
18 43
18 44
18 47
18 52
18 55
18 60
18 61
18 65
18 67
18 78
18 81
18 84
18 92
19 28
19 29
19 35
19 37
19 39
19 41
19 42
19 49
19 57
19 61
19 62
19 63
19 70
19 74
19 75
19 83
19 92
19 100
20 25
20 28
20 31
20 37
20 44
20 46
20 50
20 58
20 66
20 71
20 73
20 75
20 77
20 81
20 82
20 83
20 85
20 89
20 93
20 95
20 96
21 25
21 28
21 29
21 30
21 45
21 48
21 50
21 52
21 63
21 65
21 69
21 70
21 85
21 88
21 91
22 25
22 33
22 36
22 37
22 39
22 42
22 44
22 49
22 52
22 53
22 59
22 62
22 63
22 72
22 75
22 76
22 77
23 29
23 30
23 31
23 32
23 38
23 55
23 62
23 67
23 71
23 76
23 78
23 82
23 83
23 87
23 93
23 94
24 29
24 35
24 37
24 41
24 44
24 49
24 53
24 55
24 57
24 61
24 62
24 63
24 72
24 73
24 76
24 77
24 88
24 91
24 93
24 94
24 95
24 98
25 26
25 27
25 30
25 50
25 56
25 57
25 66
25 72
25 74
25 76
25 77
25 78
25 81
25 84
25 88
26 28
26 30
26 31
26 36
26 40
26 47
26 52
26 54
26 56
26 57
26 58
26 63
26 68
26 71
26 77
26 98
27 33
27 37
27 38
27 48
27 55
27 56
27 60
27 62
27 68
27 70
27 73
27 76
27 80
27 84
27 87
27 99
28 38
28 39
28 40
28 44
28 45
28 58
28 59
28 77
28 79
28 80
28 92
28 94
29 38
29 42
29 44
29 53
29 56
29 57
29 59
29 63
29 64
29 65
29 71
29 75
29 81
29 84
29 92
29 96
30 34
30 37
30 42
30 47
30 50
30 52
30 53
30 56
30 59
30 64
30 65
30 68
30 69
30 71
30 81
30 82
30 87
30 91
30 92
30 98
30 99
31 39
31 52
31 65
31 70
31 79
31 84
32 37
32 40
32 41
32 48
32 50
32 67
32 70
32 73
32 77
32 78
32 79
32 80
32 85
32 87
32 90
32 93
32 95
32 97
33 38
33 41
33 47
33 48
33 56
33 57
33 59
33 61
33 68
33 84
33 88
33 92
33 98
34 35
34 39
34 41
34 46
34 48
34 52
34 53
34 54
34 65
34 70
34 72
34 74
34 75
34 77
34 91
34 92
35 41
35 46
35 51
35 53
35 55
35 62
35 63
35 67
35 68
35 72
35 89
35 91
35 92
35 93
35 94
35 95
35 99
36 46
36 50
36 54
36 55
36 57
36 58
36 59
36 60
36 65
36 70
36 71
36 72
36 80
36 92
36 94
36 97
36 98
37 38
37 41
37 42
37 46
37 53
37 69
37 74
37 87
37 98
38 41
38 44
38 45
38 47
38 54
38 55
38 56
38 57
38 75
38 78
38 95
39 42
39 46
39 48
39 49
39 53
39 56
39 61
39 64
39 68
39 75
39 76
39 86
39 89
39 91
39 94
39 96
39 100
40 48
40 49
40 56
40 64
40 72
40 78
40 79
40 82
40 83
40 84
40 97
41 43
41 50
41 55
41 57
41 60
41 62
41 73
41 76
41 77
41 78
41 79
41 80
41 81
41 84
41 87
41 88
41 92
41 94
41 96
41 97
42 44
42 46
42 47
42 49
42 51
42 53
42 55
42 60
42 62
42 78
42 92
42 94
42 95
42 96
43 47
43 51
43 53
43 58
43 63
43 69
43 79
43 81
43 94
43 95
43 97
44 47
44 49
44 52
44 53
44 61
44 70
44 72
44 74
44 75
44 77
44 84
44 89
44 98
45 48
45 49
45 52
45 57
45 58
45 59
45 63
45 64
45 67
45 74
45 81
45 85
45 86
45 89
45 97
45 100
46 55
46 62
46 63
46 68
46 81
46 85
46 88
46 94
46 96
46 100
47 48
47 49
47 50
47 51
47 54
47 55
47 66
47 69
47 75
47 76
47 77
47 86
47 94
47 98
48 55
48 57
48 59
48 62
48 69
48 71
48 74
48 83
48 95
48 96
48 97
49 64
49 68
49 74
49 77
50 55
50 63
50 76
50 83
50 88
50 90
50 91
50 93
50 95
51 54
51 61
51 68
51 78
51 81
51 86
51 88
51 90
51 95
52 55
52 56
52 60
52 75
52 82
52 89
52 92
52 98
53 54
53 59
53 62
53 74
53 88
54 55
54 65
54 68
54 72
54 73
54 76
54 83
54 88
54 94
55 66
55 70
55 73
55 88
55 97
55 99
56 60
56 76
56 79
56 86
56 93
56 97
57 60
57 73
57 75
57 81
57 85
57 91
57 93
57 96
57 97
57 99
58 64
58 71
58 79
58 81
58 84
58 86
59 62
59 69
59 78
59 79
59 81
59 91
59 98
59 100
60 81
60 84
60 91
60 97
61 62
61 67
61 73
61 91
61 93
61 97
61 100
62 66
62 70
62 80
62 84
62 86
62 88
62 90
62 91
62 93
62 99
63 72
63 75
63 76
63 80
63 86
63 89
63 92
63 96
64 72
64 74
64 75
64 76
64 79
64 84
64 93
65 67
65 68
65 70
65 74
65 75
65 80
65 81
65 87
65 92
65 95
65 98
66 77
66 79
66 82
66 89
66 97
67 73
67 75
67 79
67 80
67 87
67 90
67 91
67 99
68 73
68 75
68 76
68 81
68 86
68 89
68 93
68 100
69 71
69 72
69 76
69 80
69 82
69 85
69 88
69 94
69 96
69 97
69 99
70 72
70 77
70 81
70 85
70 86
70 87
70 91
70 92
70 94
70 95
71 76
71 78
71 83
71 89
71 90
71 96
71 97
72 76
72 90
72 92
73 75
73 79
73 91
73 97
74 80
74 99
75 93
75 95
75 98
75 99
75 100
76 79
76 90
76 91
76 96
77 79
77 81
77 87
77 88
78 79
78 94
79 82
79 85
79 95
79 96
79 99
80 85
80 87
80 92
80 94
81 84
81 86
81 92
81 93
81 99
82 83
82 87
82 91
82 94
82 100
83 87
83 94
84 88
84 100
85 88
85 90
85 95
85 99
86 90
86 92
86 97
87 90
87 91
88 89
88 92
89 90
89 92
89 93
89 95
90 95
90 99
91 93
91 94
91 97
91 98
92 96
93 94
93 99
94 96
94 99
94 100
96 99
99 100
